language ESSENCE' 1.0
$ minion Nodes: 1
$ minion TotalTime: 0.00072
$ Savile Row TotalTime: 0.413
letting y_tuple1 be 1
letting y_tuple3 be 4
letting y_tuple4_tuple1 be 5
letting y_tuple4_tuple2 be 6
letting y_tuple4_tuple3_SetOccurrence be [true, true, true;int(7,8,9)]
letting y_tuple2_SetOccurrence be [true, true;int(2,3)]
